
******************************************************************************
This program contains Ipopt, a library for large-scale nonlinear optimization.
 Ipopt is released as open source code under the Eclipse Public License (EPL).
         For more information visit http://projects.coin-or.org/Ipopt
******************************************************************************

This is Ipopt version 3.12.6, running with linear solver ma57.

Number of nonzeros in equality constraint Jacobian...:    13421
Number of nonzeros in inequality constraint Jacobian.:     2982
Number of nonzeros in Lagrangian Hessian.............:      357

Total number of variables............................:     1515
                     variables with only lower bounds:        0
                variables with lower and upper bounds:      595
                     variables with only upper bounds:        0
Total number of equality constraints.................:     1065
Total number of inequality constraints...............:     1286
        inequality constraints with only lower bounds:        0
   inequality constraints with lower and upper bounds:        0
        inequality constraints with only upper bounds:     1286

iter    objective    inf_pr   inf_du lg(mu)  ||d||  lg(rg) alpha_du alpha_pr  ls
   0 -5.1478200e+00 1.67e+03 1.00e+02  -1.0 0.00e+00    -  0.00e+00 0.00e+00   0
Reallocating memory for MA57: lfact (216957)
   1 -7.4026377e+02 1.67e+03 1.00e+02  -1.0 1.71e+03    -  4.58e-04 2.45e-05f  1
   2 -2.8907919e+04 1.67e+03 9.99e+01  -1.0 1.72e+03    -  5.16e-04 9.41e-04f  1
   3 -9.5317735e+04 1.66e+03 9.97e+01  -1.0 1.72e+03    -  7.16e-04 2.22e-03f  1
   4 -1.9843266e+05 1.66e+03 9.93e+01  -1.0 1.72e+03    -  2.61e-03 3.47e-03f  1
   5 -4.6011887e+05 1.64e+03 9.85e+01  -1.0 1.71e+03    -  3.58e-03 8.90e-03f  1
   6 -9.1578480e+05 1.62e+03 9.69e+01  -1.0 1.69e+03    -  1.16e-02 1.58e-02f  1
   7 -1.5216029e+06 1.58e+03 9.48e+01  -1.0 1.66e+03    -  1.96e-02 2.18e-02f  1
   8 -2.5248793e+06 1.52e+03 9.12e+01  -1.0 1.62e+03    -  5.68e-03 3.80e-02f  1
   9 -2.8196268e+06 1.50e+03 9.02e+01  -1.0 1.55e+03    -  1.49e-02 1.19e-02f  1
iter    objective    inf_pr   inf_du lg(mu)  ||d||  lg(rg) alpha_du alpha_pr  ls
  10 -2.9766881e+06 1.49e+03 8.96e+01  -1.0 1.53e+03    -  6.38e-03 6.50e-03f  1
  11 -3.3085955e+06 1.47e+03 8.83e+01  -1.0 1.52e+03    -  5.02e-03 1.40e-02f  1
  12 -4.0043600e+06 1.43e+03 8.57e+01  -1.0 1.50e+03    -  7.34e-03 3.03e-02f  1
  13 -4.0702168e+06 1.42e+03 8.54e+01  -1.0 1.43e+03    -  1.12e-02 3.03e-03f  1
  14 -4.7555800e+06 1.38e+03 8.27e+01  -1.0 1.45e+03    -  4.02e-03 3.21e-02f  1
  15 -4.8423400e+06 1.37e+03 8.23e+01  -1.0 1.41e+03    -  9.05e-03 4.27e-03f  1
  16 -5.0380027e+06 1.36e+03 8.15e+01  -1.0 1.35e+03    -  2.68e-03 9.84e-03f  1
  17 -5.0814750e+06 1.36e+03 8.13e+01  -1.0 1.38e+03    -  1.01e-02 2.20e-03f  1
  18 -5.3548190e+06 1.34e+03 8.02e+01  -1.0 1.33e+03    -  2.61e-03 1.41e-02f  1
  19 -5.3848692e+06 1.33e+03 8.01e+01  -1.0 1.36e+03    -  1.17e-02 1.57e-03f  1
iter    objective    inf_pr   inf_du lg(mu)  ||d||  lg(rg) alpha_du alpha_pr  ls
  20 -5.7866263e+06 1.31e+03 7.84e+01  -1.0 1.31e+03    -  3.53e-03 2.15e-02f  1
  21 -5.8136551e+06 1.30e+03 7.82e+01  -1.0 1.31e+03    -  1.45e-02 1.48e-03f  1
  22 -6.4340607e+06 1.26e+03 7.55e+01  -1.0 1.27e+03    -  6.56e-03 3.49e-02f  1
  23 -6.4618817e+06 1.26e+03 7.54e+01  -1.0 1.25e+03    -  1.83e-02 1.65e-03f  1
  24 -7.3289538e+06 1.19e+03 7.14e+01  -1.0 1.23e+03    -  1.32e-02 5.31e-02f  1
  25 -7.3592071e+06 1.19e+03 7.13e+01  -1.0 1.17e+03    -  2.29e-02 2.01e-03f  1
  26 -7.9062931e+06 1.14e+03 6.86e+01  -1.0 1.15e+03    -  1.32e-02 3.73e-02f  1
  27 -8.3889677e+06 1.10e+03 6.62e+01  -1.0 1.11e+03    -  1.21e-02 3.57e-02f  1
  28 -8.6455551e+06 1.08e+03 6.48e+01  -1.0 1.04e+03    -  3.27e-02 2.02e-02f  1
  29 -8.6916014e+06 1.08e+03 6.46e+01  -1.0 1.02e+03    -  2.42e-02 3.73e-03f  1
iter    objective    inf_pr   inf_du lg(mu)  ||d||  lg(rg) alpha_du alpha_pr  ls
  30 -9.1217893e+06 1.04e+03 6.23e+01  -1.0 1.00e+03    -  1.86e-03 3.58e-02f  1
  31 -9.2668115e+06 1.02e+03 6.15e+01  -1.0 9.64e+02    -  5.36e-02 1.28e-02f  1
  32 -9.3878280e+06 1.01e+03 6.08e+01  -1.0 9.65e+02    -  1.95e-02 1.09e-02f  1
  33 -9.7326869e+06 9.81e+02 5.89e+01  -1.0 1.02e+03    -  1.28e-02 3.19e-02f  1
  34 -1.0199962e+07 9.35e+02 5.61e+01  -1.0 9.89e+02    -  4.12e-02 4.64e-02f  1
  35 -1.1239844e+07 8.26e+02 4.96e+01  -1.0 9.48e+02    -  8.22e-02 1.17e-01f  1
  36 -1.1539074e+07 7.91e+02 4.75e+01  -1.0 8.47e+02    -  1.47e-02 4.16e-02f  1
  37 -1.1862750e+07 7.52e+02 4.52e+01  -1.0 8.12e+02    -  3.02e-02 4.91e-02f  1
  38 -1.2121231e+07 7.20e+02 4.32e+01  -1.0 7.72e+02    -  7.12e-02 4.31e-02f  1
  39 -1.2508025e+07 6.69e+02 4.02e+01  -1.0 7.39e+02    -  8.24e-02 7.11e-02f  1
iter    objective    inf_pr   inf_du lg(mu)  ||d||  lg(rg) alpha_du alpha_pr  ls
  40 -1.2827634e+07 6.24e+02 3.74e+01  -1.0 6.87e+02    -  1.49e-01 6.77e-02f  1
  41 -1.3592369e+07 5.00e+02 3.00e+01  -1.0 6.46e+02    -  2.96e-02 1.98e-01f  1
  42 -1.4062235e+07 4.07e+02 2.44e+01  -1.0 5.42e+02    -  4.05e-02 1.85e-01f  1
  43 -1.4111705e+07 3.96e+02 2.38e+01  -1.0 4.38e+02    -  7.38e-02 2.69e-02f  1
  44 -1.4403929e+07 3.25e+02 1.95e+01  -1.0 4.34e+02    -  1.31e-01 1.80e-01f  1
  45 -1.4599415e+07 2.67e+02 1.60e+01  -1.0 3.69e+02    -  8.53e-02 1.78e-01f  1
  46 -1.4752455e+07 2.12e+02 1.27e+01  -1.0 3.10e+02    -  1.59e-01 2.05e-01f  1
  47 -1.4973442e+07 9.05e+01 1.37e+01  -1.0 2.69e+02    -  1.43e-01 5.74e-01f  1
  48 -1.5014911e+07 4.43e+01 9.58e+00  -1.0 1.33e+02    -  2.86e-01 5.11e-01f  1
  49 -1.5030473e+07 9.23e+00 1.91e+01  -1.0 6.93e+01    -  2.55e-01 7.91e-01f  1
iter    objective    inf_pr   inf_du lg(mu)  ||d||  lg(rg) alpha_du alpha_pr  ls
  50 -1.5031380e+07 6.40e+00 1.28e+01  -1.0 2.67e+01    -  3.22e-01 3.06e-01f  1
  51 -1.5032505e+07 2.40e+00 1.20e+01  -1.0 2.63e+01    -  2.60e-01 6.25e-01f  1
  52 -1.5032816e+07 1.30e+00 2.13e+01  -1.0 1.65e+01    -  1.57e-01 4.57e-01f  1
  53 -1.5032997e+07 6.47e-01 4.58e+00  -1.0 1.57e+01    -  6.39e-01 5.03e-01f  1
  54 -1.5033074e+07 3.45e-01 5.95e+01  -1.0 1.28e+01    -  7.62e-01 4.66e-01f  1
  55 -1.5033114e+07 1.44e-01 4.16e+01  -1.0 9.69e+00    -  6.29e-01 5.82e-01f  1
  56 -1.5033122e+07 1.04e-01 2.80e+02  -1.0 7.13e+00    -  5.73e-01 2.82e-01f  2
  57 -1.5033133e+07 6.13e-02 3.99e+02  -1.0 1.20e+01    -  6.02e-01 4.08e-01f  2
  58 -1.5033146e+07 3.00e-03 9.83e+01  -1.0 6.83e+00    -  9.90e-01 9.51e-01h  1
  59 -1.5033146e+07 2.52e-03 3.39e+04  -1.0 1.15e+00    -  9.90e-01 1.62e-01h  1
iter    objective    inf_pr   inf_du lg(mu)  ||d||  lg(rg) alpha_du alpha_pr  ls
  60 -1.5033147e+07 8.51e-04 2.73e+04  -1.0 9.53e-01    -  9.94e-01 6.62e-01h  1
  61 -1.5033147e+07 3.59e-04 6.76e+04  -1.0 3.25e-01    -  1.00e+00 5.79e-01h  1
  62 -1.5033147e+07 1.17e-04 1.11e+05  -1.0 1.37e-01    -  1.00e+00 6.73e-01h  1
  63 -1.5033147e+07 3.46e-05 1.96e+05  -1.0 4.47e-02    -  1.00e+00 7.05e-01h  1
  64 -1.5033147e+07 3.35e-05 8.71e+05  -1.0 1.32e-02    -  1.00e+00 3.12e-02f  6
  65 -1.5033147e+07 1.65e-05 2.14e-06  -1.0 1.28e-02    -  1.00e+00 1.00e+00h  1
  66 -1.5033502e+07 3.82e-06 2.93e+04  -5.7 5.53e+00    -  8.38e-01 8.53e-01f  1
Reallocating memory for MA57: lfact (228347)
  67 -1.5033551e+07 1.86e-05 1.29e+04  -5.7 6.28e+00    -  7.23e-01 6.52e-01f  1
  68 -1.5033564e+07 9.40e-06 4.36e+04  -5.7 3.09e+00    -  9.03e-01 4.96e-01f  1
  69 -1.5033573e+07 2.96e-06 1.52e+04  -5.7 2.16e+00    -  8.54e-01 6.85e-01f  1
iter    objective    inf_pr   inf_du lg(mu)  ||d||  lg(rg) alpha_du alpha_pr  ls
  70 -1.5033576e+07 5.84e-07 2.55e+03  -5.7 1.33e+00    -  4.49e-01 8.03e-01f  1
Reallocating memory for MA57: lfact (242476)
  71 -1.5033577e+07 7.43e-08 2.13e+02  -5.7 7.78e-01    -  7.16e-01 8.73e-01f  1
  72 -1.5033577e+07 8.27e-13 1.05e+01  -5.7 2.80e-01    -  9.47e-01 1.00e+00f  1
Reallocating memory for MA57: lfact (257159)
  73 -1.5033577e+07 1.31e-12 4.89e-02  -5.7 4.82e-02    -  1.00e+00 9.22e-01f  1
  74 -1.5033577e+07 1.08e-12 1.84e-11  -5.7 1.20e-02    -  1.00e+00 1.00e+00f  1
  75 -1.5033577e+07 1.02e-12 1.01e+01  -8.6 8.54e-03    -  9.60e-01 7.09e-01f  1
  76 -1.5033577e+07 1.48e-12 2.22e+00  -8.6 4.62e-03    -  3.99e-01 7.52e-01f  1
  77 -1.5033577e+07 1.09e-12 8.32e-01  -8.6 2.28e-03    -  9.38e-01 6.27e-01f  1
Reallocating memory for MA57: lfact (270316)
  78 -1.5033577e+07 3.02e-11 2.12e-01  -8.6 1.89e-03    -  1.27e-01 7.71e-01f  1
  79 -1.5033577e+07 5.07e-11 9.69e-02  -8.6 8.36e-04    -  5.76e-01 1.00e+00f  1
iter    objective    inf_pr   inf_du lg(mu)  ||d||  lg(rg) alpha_du alpha_pr  ls
  80 -1.5033577e+07 1.59e-11 2.27e-13  -8.6 4.21e-04    -  1.00e+00 1.00e+00h  1
Reallocating memory for MA57: lfact (285387)
  81 -1.5033577e+07 1.31e-12 1.14e-13  -9.0 3.37e-04    -  1.00e+00 1.00e+00h  1

Number of Iterations....: 81

                                   (scaled)                 (unscaled)
Objective...............:  -2.0879967881247560e+06   -1.5033576874498243e+07
Dual infeasibility......:   1.1368683772161603e-13    8.1854523159563533e-13
Constraint violation....:   1.1070610883588513e-12    1.3073986337985843e-12
Complementarity.........:   6.4616187554204520e-09    4.6523655039027254e-08
Overall NLP error.......:   6.4616187554204520e-09    4.6523655039027254e-08


Number of objective function evaluations             = 89
Number of objective gradient evaluations             = 82
Number of equality constraint evaluations            = 89
Number of inequality constraint evaluations          = 89
Number of equality constraint Jacobian evaluations   = 82
Number of inequality constraint Jacobian evaluations = 82
Number of Lagrangian Hessian evaluations             = 81
Total CPU secs in IPOPT (w/o function evaluations)   =      0.847
Total CPU secs in NLP function evaluations           =      0.043

EXIT: Optimal Solution Found.
Note: The following floating-point exceptions are signalling: IEEE_OVERFLOW_FLAG IEEE_UNDERFLOW_FLAG IEEE_DENORMAL

************************ CUTEst statistics ************************


 Package used            :  IPOPT
 Problem                 :  MPC13     
 # variables             =            1530
 # constraints           =            2351
 # objective functions   =        0.1720000E+03
 # objective gradients   =        0.8300000E+02
 # objective Hessians    =        0.8200000E+02
 # Hessian-vector prdct  =        0.0000000E+00
 # constraints functions =        0.1730000E+03
 # constraints gradients =        0.8400000E+02
 # constraints Hessians  =        0.8200000E+02
 Exit code               =               0
 Final f                 =  -0.1503358E+08
 Set up time             =            0.05 seconds
 Solve time              =            1.07 seconds


******************************************************************

System Time =       0.8590000272 s.
